WARNING: for repeatability, setting FPU to use double precision
============================[ Problem Statistics ]=============================
|                                                                             |
|  Number of variables:           284                                         |
|  Number of clauses:            1152                                         |
|  Parse time:                   0.00 s                                       |
|                                                                             |
============================[ Search Statistics ]==============================
| Conflicts |          ORIGINAL         |          LEARNT          | Progress |
|           |    Vars  Clauses Literals |    Limit  Clauses Lit/Cl |          |
===============================================================================
|       100 |     284     1152     3333 |      422      100      8 |  0.001 % |
===============================================================================
restarts              : 3
conflicts             : 208            (inf /sec)
decisions             : 273            (0.00 % random) (inf /sec)
propagations          : 10058          (inf /sec)
conflict literals     : 1401           (23.02 % deleted)
Memory used           : 19.00 MB
CPU time              : 0 s

UNSATISFIABLE
